20
20
470
465
444
429
411
408
404
386
330
324
253
242
161
139
132
94
60
43
31
7
4	60
12	138
89	585
264	430
606	945
268	409
619	591
958	839
972	818
723	71
300	979
190	588
965	923
711	671
223	88
953	337
856	187
509	50
963	86
304	23
